% demand
num_movements = 47;
loading_factor = [1450, 1300, 1750, 800, 1250, 1650, 1500, 1350, 1200, 1450, 1600, 1050, 1050, 1150, 1650, 1800, 1150, 1250, 1150, 1150, 1450, 2000, 1650, 1200, 1800, 950, 1450, 1800, 1450, 1350, 1000, 1700, 1500, 1100, 1700, 1750, 900, 900, 800, 1800, 800, 1100, 1000, 1000, 1700, 1700, 1250];
pickup_time = [0, 0, 0, 0, 0, 1, 1, 1, 1, 1, 2, 2, 2, 3, 3, 3, 3, 3, 4, 4, 4, 4, 4, 4, 7, 7, 7, 7, 7, 8, 8, 8, 8, 8, 8, 8, 8, 9, 10, 10, 10, 10, 10, 10, 11, 12, 12];
delivery_time = [1, 1, 3, 2, 2, 2, 2, 2, 2, 2, 4, 4, 4, 7, 4, 4, 8, 4, 7, 7, 7, 7, 8, 7, 8, 8, 8, 8, 8, 10, 9, 10, 10, 9, 10, 10, 9, 10, 12, 12, 11, 11, 12, 12, 13, 13, 13];

% transporter definition
total_capacity = 11000;
num_decks = 4;
capacity = [3000, 3000, 1000, 4000];

% ways out of decks
num_ways_out = 2;
paths_out = array3d(decks, ways_out, decks, [
% ways out of deck d1
2, 4, 0, 0, 3, 4, 0, 0, 

% ways out of deck d2
4, 0, 0, 0, 0, 0, 0, 0,	

% ways out of deck d3
4, 0, 0, 0, 0, 0, 0, 0,	

% ways out of deck d4
0, 0, 0, 0,	0, 0, 0, 0,	

]);

